============================[ Problem Statistics ]=============================|                                                                             ||  Number of variables:          4242                                         ||  Number of clauses:            9884                                         ||  Parse time:                   0.28 s                                       ||                                                                             |============================[ Search Statistics ]==============================| Conflicts |          ORIGINAL         |          LEARNT          | Progress ||           |    Vars  Clauses Literals |    Limit  Clauses Lit/Cl |          |===============================================================================|       100 |    1591     6089   435000 |     2232      100     53 | 62.501 % |===============================================================================restarts              : 2conflicts             : 166            (376 /sec)decisions             : 338            (0.00 % random) (766 /sec)propagations          : 9994           (22662 /sec)conflict literals     : 11104          (95.31 % deleted)CPU time              : 0.441 sSATISFIABLE